p cnf 16 26
1 2 3 0
-1 -2 0
-1 -3 0
-2 -3 0
4 5 0
-4 -5 0
6 7 8 9 0
-6 -7 0
-6 -8 0
-6 -9 0
-7 -8 0
-7 -9 0
-8 -9 0
10 11 0
-10 -11 0
12 13 0
-12 -13 0
14 15 16 0
-14 -15 0
-14 -16 0
-15 -16 0
-2 -5 0
-1 -7 0
-2 -8 0
-3 -9 0
-4 -11 0
